SCIP Status        : solving was interrupted [time limit reached]
Total Time         :    3600.00
  solving          :    3600.00
  presolving       :       0.35 (included in solving)
  reading          :       0.00
  copying          :       1.04 (30 #copies) (minimal 0.00, maximal 0.06, average 0.03)
Original Problem   :
  Problem name     : bbbenchmark/g05_80.3.cut
  Variables        : 81 (80 binary, 0 integer, 0 implicit integer, 1 continuous)
  Constraints      : 1 initial, 1 maximal
  Objective        : minimize, 1 non-zeros (abs.min = 1, abs.max = 1)
Presolved Problem  :
  Problem name     : t_bbbenchmark/g05_80.3.cut
  Variables        : 1612 (80 binary, 0 integer, 1530 implicit integer, 2 continuous)
  Constraints      : 1534 initial, 6109 maximal
  Objective        : minimize, 1 non-zeros (abs.min = 1, abs.max = 1)
  Nonzeros         : 6307 constraint, 162 clique table
Presolvers         :   ExecTime  SetupTime  Calls  FixedVars   AggrVars   ChgTypes  ChgBounds   AddHoles    DelCons    AddCons   ChgSides   ChgCoefs
  boundshift       :       0.00       0.00      0          0          0          0          0          0          0          0          0          0
  convertinttobin  :       0.00       0.00      0          0          0          0          0          0          0          0          0          0
  domcol           :       0.00       0.00      1          0          0          0          0          0          0          0          0          0
  dualagg          :       0.00       0.00      0          0          0          0          0          0          0          0          0          0
  dualcomp         :       0.00       0.00      1          0          0          0          0          0          0          0          0          0
  dualinfer        :       0.00       0.00      0          0          0          0          0          0          0          0          0          0
  dualsparsify     :       0.00       0.00      1          0          0          0          0          0          0          0          0          0
  gateextraction   :       0.00       0.00      0          0          0          0          0          0          0          0          0          0
  implics          :       0.00       0.00      2          0          0          0          0          0          0          0          0          0
  inttobinary      :       0.00       0.00      0          0          0          0          0          0          0          0          0          0
  qpkktref         :       0.00       0.00      0          0          0          0          0          0          0          0          0          0
  redvub           :       0.00       0.00      0          0          0          0          0          0          0          0          0          0
  sparsify         :       0.00       0.00      1          0          0          0          0          0          0          0          0          0
  stuffing         :       0.00       0.00      0          0          0          0          0          0          0          0          0          0
  trivial          :       0.00       0.00      4          0          0          0          0          0          0          0          0          0
  tworowbnd        :       0.00       0.00      0          0          0          0          0          0          0          0          0          0
  dualfix          :       0.00       0.00      4          0          0          0          0          0          0          0          0          0
  genvbounds       :       0.00       0.00      0          0          0          0          0          0          0          0          0          0
  probing          :       0.22       0.00      1          0          0          0          0          0          0          0          0          0
  pseudoobj        :       0.00       0.00      1          0          0          0          1          0          0          0          0          0
  symmetry         :       0.00       0.00      0          0          0          0          0          0          0          0          0          0
  vbounds          :       0.00       0.00      1          0          0          0          0          0          0          0          0          0
  varbound         :       0.00       0.00      2          0          0          0          0          0          0          0          0          0
  and              :       0.00       0.01      2          0          0          0          0          0          0          0          0          0
  linear           :       0.00       0.00      2          0          0          0          0          0          0          0          0          0
  logicor          :       0.00       0.00      0          0          0          0          0          0          0          0          0          0
  bounddisjunction :       0.00       0.00      0          0          0          0          0          0          0          0          0          0
  nonlinear        :       0.12       0.00      5          0          0          0          1          0          0       1533          0          0
  benders          :       0.00       0.00      0          0          0          0          0          0          0          0          0          0
  components       :       0.00       0.00      1          0          0          0          0          0          0          0          0          0
  root node        :          -          -      -          0          -          -         28          -          -          -          -          -
Constraints        :     Number  MaxNumber  #Separate #Propagate    #EnfoLP    #EnfoRelax  #EnfoPS    #Check   #ResProp    Cutoffs    DomReds       Cuts    Applied      Conss   Children
  benderslp        :          0          0          0          0      67568          0          0       3880          0          0          0          0          0          0          0
  integral         :          0          0          0          0      67568          0          0       3880          0          0       3366          0          0       1456     132716
  varbound         :          1          1        123     129371          0          0          0         48          0          0        657          0          0          0          0
  and              :       1530       1530      73828     490823          4          0          0         48     196691          0    2151513        656        620          0          0
  linear           :          3+        13        123     490826          4          0          0         46        106          0      45660          0          0          0          0
  logicor          :          0+      4517          0     134778          0          0          0          0        125        417         42          0          0          0          0
  bounddisjunction :          0+        60          0      22933          0          0          0          0          0          2          0          0          0          0          0
  benders          :          0          0          0          0          4          0          0         46          0          0          0          0          0          0          0
  countsols        :          0          0          0          0          4          0          0         46          0          0          0          0          0          0          0
  components       :          0          0          0          0          0          0          0          0          0          0          0          0          0          0          0
Constraint Timings :  TotalTime  SetupTime   Separate  Propagate     EnfoLP     EnfoPS     EnfoRelax   Check    ResProp    SB-Prop
  benderslp        :       0.07       0.00       0.00       0.00       0.07       0.00       0.00       0.00       0.00       0.00
  integral         :      52.99       0.00       0.00       0.00      52.98       0.00       0.00       0.01       0.00       0.00
  varbound         :       0.09       0.00       0.00       0.09       0.00       0.00       0.00       0.00       0.00       0.00
  and              :      61.46       0.01      36.90      24.08       0.00       0.00       0.00       0.00       0.11       0.36
  linear           :       1.26       0.00       0.03       1.22       0.00       0.00       0.00       0.00       0.00       0.01
  logicor          :       5.73       0.00       0.00       5.71       0.00       0.00       0.00       0.00       0.00       0.02
  bounddisjunction :       0.07       0.00       0.00       0.06       0.00       0.00       0.00       0.00       0.00       0.01
  benders          :       0.00       0.00       0.00       0.00       0.00       0.00       0.00       0.00       0.00       0.00
  countsols        :       0.00       0.00       0.00       0.00       0.00       0.00       0.00       0.00       0.00       0.00
  components       :       0.19       0.00       0.00       0.19       0.00       0.00       0.00       0.00       0.00       0.00
Propagators        : #Propagate   #ResProp    Cutoffs    DomReds
  dualfix          :          2          0          0          0
  genvbounds       :          0          0          0          0
  nlobbt           :          0          0          0          0
  obbt             :          0          0          0          0
  probing          :          0          0          0          0
  pseudoobj        :     319422          0          0         29
  redcost          :     158040          0          0     113876
  rootredcost      :         15          0          0          0
  symmetry         :          0          0          0          0
  vbounds          :      62016          0          0          0
Propagator Timings :  TotalTime  SetupTime   Presolve  Propagate    ResProp    SB-Prop
  dualfix          :       0.00       0.00       0.00       0.00       0.00       0.00
  genvbounds       :       0.38       0.00       0.00       0.38       0.00       0.00
  nlobbt           :       0.00       0.00       0.00       0.00       0.00       0.00
  obbt             :       0.00       0.00       0.00       0.00       0.00       0.00
  probing          :       0.22       0.00       0.22       0.00       0.00       0.00
  pseudoobj        :       0.53       0.00       0.00       0.53       0.00       0.00
  redcost          :       9.08       0.00       0.00       9.08       0.00       0.00
  rootredcost      :       0.48       0.00       0.00       0.48       0.00       0.00
  symmetry         :       0.31       0.00       0.00       0.31       0.00       0.00
  vbounds          :       0.37       0.00       0.00       0.37       0.00       0.00
Conflict Analysis  :       Time      Calls    Success    DomReds  Conflicts   Literals    Reconvs ReconvLits   Dualrays   Nonzeros   LP Iters   (pool size: [10000,10000])
  propagation      :       0.00        419        358          -        399       47.6          0        0.0          -          -          -
  infeasible LP    :       0.00          0          0          -          0        0.0          0        0.0         10       98.2          0
  bound exceed. LP :      12.56       7128       4678          -      65363       70.9          0        0.0          0        0.0      28737
  strong branching :       0.00          0          0          -          0        0.0          0        0.0          -          -          0
  pseudo solution  :       0.00          0          0          -          0        0.0          0        0.0          -          -          -
  applied globally :       0.20          -          -          0      18893       77.7          -          -         10          -          -
  applied locally  :          -          -          -          0          0        0.0          -          -          0          -          -
Separators         :   ExecTime  SetupTime      Calls  RootCalls    Cutoffs    DomReds  FoundCuts ViaPoolAdd  DirectAdd    Applied ViaPoolApp  DirectApp      Conss
  cut pool         :       3.12          -      14577        147          -          -      35977     456275          -          -          -          -          -    (maximal pool size:       1945)
  aggregation      :     269.51       0.00       5219        123          0          0         37         84          0         12         12          0          0
  > cmir           :          -          -          -          -          -          -          -         84          0         12         12          0          -
  > flowcover      :          -          -          -          -          -          -          -          0          0          0          0          0          -
  > knapsackcover  :          -          -          -          -          -          -          -          0          0          0          0          0          -
  cgmip            :       0.00       0.00          0          0          0          0          0          0          0          0          0          0          0
  clique           :       0.00       0.00        123        123          0          0          0          0          0          0          0          0          0
  closecuts        :       0.00       0.00          0          0          0          0          0          0          0          0          0          0          0
  convexproj       :       0.00       0.00          0          0          0          0          0          0          0          0          0          0          0
  disjunctive      :       0.00       0.00          0          0          0          0          0          0          0          0          0          0          0
  eccuts           :       0.00       0.00          0          0          0          0          0          0          0          0          0          0          0
  gauge            :       0.00       0.00          0          0          0          0          0          0          0          0          0          0          0
  gomory           :       0.00       0.00          0          0          0          0          0          0          0          0          0          0          0
  > gomorymi       :          -          -          -          -          -          -          -          0          0          0          0          0          -
  > strongcg       :          -          -          -          -          -          -          -          0          0          0          0          0          -
  impliedbounds    :       0.20       0.00       5219        123          0          0          0          0          0          0          0          0          0
  interlattice     :       0.18       0.00         40         40          0          0         40          0         40         40          0         40          0
  interminor       :       0.00       0.00          0          0          0          0          0          0          0          0          0          0          0
  intersub         :       0.65       0.00         40         40          0          0         40          0         40         40          0         40          0
  intobj           :       0.00       0.00          0          0          0          0          0          0          0          0          0          0          0
  mcf              :       0.00       0.00          1          1          0          0          0          0          0          0          0          0          0
  minor            :       0.00       0.00          0          0          0          0          0          0          0          0          0          0          0
  mixing           :       0.02       0.00       5220        123          0          0          0          0          0          0          0          0          0
  oddcycle         :       0.00       0.00          0          0          0          0          0          0          0          0          0          0          0
  rapidlearning    :       0.00       0.00          0          0          0          0          0          0          0          0          0          0          0
  rlt              :       0.00       0.00         10         10          0          0          0          0          0          0          0          0          0
  zerohalf         :      39.54       0.00       4780         20          0          0      35940     456191          0      96603      96603          0          0
Cutselectors       :   ExecTime  SetupTime      Calls  RootCalls   Selected     Forced   Filtered  RootSelec   RootForc   RootFilt 
  hybrid           :       0.48       0.00       8175        122      97315          0     359696        279          0         14
Pricers            :   ExecTime  SetupTime      Calls       Vars
  problem variables:       0.00          -          0          0
Branching Rules    :   ExecTime  SetupTime   BranchLP  BranchExt   BranchPS    Cutoffs    DomReds       Cuts      Conss   Children
  allfullstrong    :       0.00       0.00          0          0          0          0          0          0          0          0
  cloud            :       0.00       0.00          0          0          0          0          0          0          0          0
  distribution     :       0.00       0.00          0          0          0          0          0          0          0          0
  fullstrong       :       0.00       0.00          0          0          0          0          0          0          0          0
  inference        :       0.00       0.00          0          0          0          0          0          0          0          0
  leastinf         :       0.00       0.00          0          0          0          0          0          0          0          0
  lookahead        :       0.00       0.00          0          0          0          0          0          0          0          0
  mostinf          :       0.00       0.00          0          0          0          0          0          0          0          0
  multaggr         :       0.00       0.00          0          0          0          0          0          0          0          0
  nodereopt        :       0.00       0.00          0          0          0          0          0          0          0          0
  pscost           :       0.00       0.00          0          0          0          0          0          0          0          0
  random           :       0.00       0.00          0          0          0          0          0          0          0          0
  relpscost        :      52.77       0.00      67564          0          0          0       3366          0       1456     132716
  vanillafullstrong:       0.00       0.00          0          0          0          0          0          0          0          0
Primal Heuristics  :   ExecTime  SetupTime      Calls      Found       Best
  LP solutions     :       0.02          -          -          4          4
  relax solutions  :       0.00          -          -          0          0
  pseudo solutions :       0.00          -          -          0          0
  strong branching :       0.02          -          -          0          0
  actconsdiving    :       0.00       0.00          0          0          0
  adaptivediving   :       3.65       0.00         37          0          0
  alns             :       4.73       0.00         23          6          6
  bound            :       0.00       0.00          0          0          0
  clique           :       0.01       0.00          1          0          0
  coefdiving       :       0.00       0.00          0          0          0
  completesol      :       0.00       0.00          0          0          0
  conflictdiving   :      32.74       0.00        391          0          0
  crossover        :       0.40       0.00          3          1          1
  dins             :       0.00       0.00          0          0          0
  distributiondivin:      57.78       0.00        391          0          0
  dps              :       0.00       0.00          0          0          0
  dualval          :       0.00       0.00          0          0          0
  farkasdiving     :       0.00       0.00          0          0          0
  feaspump         :       0.02       0.00          0          0          0
  fixandinfer      :       0.00       0.00          0          0          0
  fracdiving       :      38.00       0.00        392          0          0
  gins             :       0.16       0.00          0          0          0
  guideddiving     :      33.16       0.00        392          2          2
  indicator        :       0.08       0.00          0          0          0
  indicatordiving  :       0.00       0.00          0          0          0
  intdiving        :       0.00       0.00          0          0          0
  intshifting      :       0.49       0.00         56          0          0
  linesearchdiving :      31.51       0.00        391          0          0
  localbranching   :       0.00       0.00          0          0          0
  locks            :       0.01       0.00          1          0          0
  lpface           :       0.06       0.00          0          0          0
  mpec             :     124.95       0.00         11          0          0
  multistart       :       0.00       0.00          0          0          0
  mutation         :       0.00       0.00          0          0          0
  nlpdiving        :       7.83       0.00         10          0          0
  objpscostdiving  :      62.68       0.00         92         10          1
  octane           :       0.00       0.00          0          0          0
  ofins            :       0.08       0.00          0          0          0
  oneopt           :       0.10       0.00         25          0          0
  padm             :       0.00       0.00          0          0          0
  proximity        :       0.00       0.00          0          0          0
  pscostdiving     :      40.94       0.00        391          2          2
  randrounding     :       0.67       0.00       3830          0          0
  rens             :       0.00       0.00          0          0          0
  reoptsols        :       0.00       0.00          0          0          0
  repair           :       0.00       0.00          0          0          0
  rins             :       2.83       0.00          4          0          0
  rootsoldiving    :      63.92       0.00         89         10          0
  rounding         :       1.20       0.00       3821          0          0
  shiftandpropagate:       0.00       0.00          0          0          0
  shifting         :      45.92       0.00      10507          9          9
  simplerounding   :       0.08       0.00          0          0          0
  subnlp           :     117.33       0.00          0          0          0
  trivial          :       0.01       0.00          2          2          2
  trivialnegation  :       0.00       0.00          0          0          0
  trustregion      :       0.00       0.00          0          0          0
  trysol           :       0.10       0.00          0          0          0
  twoopt           :       0.00       0.00          0          0          0
  undercover       :       0.83       0.00          1          1          1
  vbounds          :       0.00       0.00          0          0          0
  veclendiving     :      30.62       0.00        391          0          0
  zeroobj          :       0.00       0.00          0          0          0
  zirounding       :       0.58       0.00       1000          0          0
  other solutions  :          -          -          -          0          -
Diving (single)    :      Calls      Nodes   LP Iters Backtracks  Conflicts   MinDepth   MaxDepth   AvgDepth  RoundSols  NLeafSols  MinSolDpt  MaxSolDpt  AvgSolDpt
  actconsdiving    :          0          -          -          -          -          -          -          -          -          -          -          -          -
  coefdiving       :          0          -          -          -          -          -          -          -          -          -          -          -          -
  conflictdiving   :        391      12948     319648        451      12486         37         68       50.4          0          -          -          -          -
  distributiondivin:        391       9797     424666        425       4473         35         52       42.1          0          -          -          -          -
  farkasdiving     :          0          -          -          -          -          -          -          -          -          -          -          -          -
  fracdiving       :        392      35457     351030        359       4274         48        451      107.5          0          -          -          -          -
  guideddiving     :        392      30900     312352        236       4487         50        364       96.1          0          2        100        102      101.0
  indicatordiving  :          0          -          -          -          -          -          -          -          -          -          -          -          -
  linesearchdiving :        391      12760     302383        414      10539         34         75       49.8          0          -          -          -          -
  pscostdiving     :        391      12196     406959        404       7495         41         59       48.1          0          2         52         56       54.0
  veclendiving     :        391      12765     287131        416      14280         39         66       49.9          0          -          -          -          -
Diving (adaptive)  :      Calls      Nodes   LP Iters Backtracks  Conflicts   MinDepth   MaxDepth   AvgDepth  RoundSols  NLeafSols  MinSolDpt  MaxSolDpt  AvgSolDpt
  actconsdiving    :          8        229       8995          9        102         41         46       43.6          0          -          -          -          -
  coefdiving       :         16        551      10159         16        439         41         58       51.9          0          -          -          -          -
  conflictdiving   :          0          -          -          -          -          -          -          -          -          -          -          -          -
  distributiondivin:          0          -          -          -          -          -          -          -          -          -          -          -          -
  farkasdiving     :          0          -          -          -          -          -          -          -          -          -          -          -          -
  fracdiving       :          2         98       2311          2         32         62         68       65.0          0          -          -          -          -
  guideddiving     :          3        219       2546          1         41         71        105       89.7          0          -          -          -          -
  indicatordiving  :          0          -          -          -          -          -          -          -          -          -          -          -          -
  linesearchdiving :          2         74       1296          2         46         48         57       52.5          0          -          -          -          -
  pscostdiving     :          1         39        765          1         54         59         59       59.0          0          -          -          -          -
  veclendiving     :          5        186       4939          7        256         49         57       53.2          0          -          -          -          -
Neighborhoods      :      Calls  SetupTime  SolveTime SolveNodes       Sols       Best       Exp3  EpsGreedy        UCB TgtFixRate  Opt  Inf Node Stal  Sol  Usr Othr Actv
  rens             :          2       0.10       0.05          7          0          0    0.00000   -1.00000    0.54195      0.550    0    2    0    0    0    0    0    1
  rins             :          3       0.15       1.84       1090          3          3    0.00000   -1.00000    0.50526      0.662    0    1    0    1    1    0    0    1
  mutation         :          4       0.23       0.33        108          1          1    0.00000   -1.00000    0.53030      0.578    1    2    0    1    0    0    0    1
  localbranching   :          4       0.24       0.58        342          1          1    0.00000   -1.00000    0.48334      0.634    0    2    0    2    0    0    0    1
  crossover        :          2       0.15       0.08         53          0          0    0.00000   -1.00000    0.47542      0.850    0    1    0    1    0    0    0    1
  proximity        :          2       0.14       0.08         59          0          0    0.00000   -1.00000    0.47140      0.850    0    1    0    1    0    0    0    1
  zeroobjective    :          3       0.19       0.24         66          0          0    0.00000   -1.00000    0.46016      0.662    0    2    0    1    0    0    0    1
  dins             :          3       0.09       0.04         20          1          1    0.00000   -1.00000    0.48945      0.550    1    1    0    0    0    0    1    1
  trustregion      :          0       0.00       0.00          0          0          0    0.00000   -1.00000    1.00000      0.900    0    0    0    0    0    0    0    0
Expressions        :   #IntEval  IntEvalTi   #RevProp  RevPropTi    DomReds    Cutoffs  #Estimate  EstimTime  Branching  #Simplify SimplifyTi Simplified
  pow              :          0       0.00          0       0.00          0          0          0       0.00          0          0       0.00          0
  prod             :       6320       0.00          0       0.00          0          0          0       0.00          0       4690       0.01          0
  sum              :          8       0.00          2       0.00          0          0          0       0.00          0          3       0.01          2
  var              :       5485       0.00          0       0.00          0          0          0       0.00          0      11154       0.00          0
  varidx           :          0       0.00          0       0.00          0          0          0       0.00          0          0       0.00          0
LP                 :       Time      Calls Iterations  Iter/call   Iter/sec  Time-0-It Calls-0-It    ItLimit
  primal LP        :     103.32       8251          0       0.00       0.00     103.28       8251
  dual LP          :    2228.48     138079   10628021      86.17    4769.18       6.52      14745
  lex dual LP      :       0.00          0          0       0.00          -
  barrier LP       :       0.00          0          0       0.00          -       0.00          0
  resolve instable :       0.00          0          0       0.00          -
  diving/probing LP:     343.46      14854    3037346     204.48    8843.38
  strong branching :      27.60       2327     226822      97.47    8218.19          -          -         24
    (at root node) :          -         19       6423     338.05          -
  conflict analysis:       4.52       2966      28737       9.69    6357.74
NLP relaxation     :
  solve time       :       7.82 (10 calls)
  convexity        :  nonconvex (4 linear rows, 0 convex ineq., 0 nonconvex ineq., 1530 nonlinear eq. or two-sided ineq.)
NLP Solvers        :  #Problems  ProblemTi    #Solves  SolveTime      #Iter  Time/Iter      #Okay #TimeLimit #IterLimit #LObjLimit #Interrupt  #NumError #EvalError  #OutOfMem #LicenseEr #OtherTerm   #GlobOpt    #LocOpt  #Feasible #LocInfeas #GlobInfea #Unbounded   #Unknown
  ipopt            :         12       4.48         41     132.71       2408       0.06         41          0          0          0          0          0          0          0          0          0          0          0          0         31          0          0         10
B&B Tree           :
  number of runs   :          1
  nodes            :     113958 (66358 internal, 47600 leaves)
  feasible leaves  :          4
  infeas. leaves   :          4
  objective leaves :      47591
  nodes (total)    :     113958 (66358 internal, 47600 leaves)
  nodes left       :      18679
  max depth        :         51
  max depth (total):         51
  backtracks       :      21906 (19.2%)
  early backtracks :          0 (0.0%)
  nodes exc. ref.  :          0 (0.0%)
  delayed cutoffs  :          0
  repropagations   :       2592 (4 domain reductions, 0 cutoffs)
  avg switch length:       4.12
  switching time   :     124.62
Estim. Tree Size   :     228076
Estimation Tree    : 132717 nodes (114038 visited, 66358 internal, 47680 leaves, 18679 open), weight: 0.0000 completed 0.1143
Estimations        :      estim      value      trend resolution     smooth
  wbe              : 81317709925          -          -          -          -
  tree-profile     :         -1          -          -          -          -
  gap              :     218272    0.77912    0.00023         64     212383
  tree-weight      :     228076    0.00000    0.00000         64     227955
  leaf-frequency   :     228076    0.41810   -0.00001         64     229247
  ssg              :    3444252    0.81947   -0.00003         64    3479341
  open-nodes       :     228076 18679.00000   17.83329         64     227955
Root Node          :
  First LP value   : -1.00000000000000e+00
  First LP Iters   :       1020 (12750.00 Iter/sec)
  First LP Time    :       0.08
  Final Dual Bound : -9.14692147409153e-01
  Final Root Iters :       5000
  Root LP Estimate : -5.01655708445081e-01
Solution           :
  Solutions found  :         47 (28 improvements)
  First Solution   : +1.00000000000000e+05   (in run 1, after 0 nodes, 0.00 seconds, depth 0, found by <trivial>)
  Gap First Sol.   :   infinite
  Gap Last Sol.    :      28.41 %
  Primal Bound     : -5.75949367088608e-01   (in run 1, after 112795 nodes, 3546.60 seconds, depth 40, found by <alns>)
  Dual Bound       : -7.39228334956184e-01
  Gap              :      28.35 %
Integrals          :      Total       Avg%
  primal-dual      :   94932.80      26.37
  primal-ref       :          -          - (not evaluated)
  dual-ref         :          -          - (not evaluated)
